NAME : single
TYPE : ATSP
DIMENSION : 6
EDGE_WEIGHT_TYPE : EXPLICIT
EDGE_WEIGHT_FORMAT : FULL_MATRIX
EDGE_WEIGHT_SECTION
0 50239 50149 925 264 197 
0 0 70 354 50000 50000 
0 70 0 417 50000 50000 
0 354 417 0 50000 50000 
0 50000 50000 50000 0 76 
0 50000 50000 50000 76 0 
EOF